(set-logic QF_S)
(declare-fun var0 () String)
(assert (str.in.re var0 (re.++ (re.* (re.union (str.to.re "0") (str.to.re "11"))) (re.++ (re.* (re.+ (str.to.re "2"))) (re.++ (re.union (re.union (str.to.re "33") (str.to.re "44")) (re.union (str.to.re "555") (str.to.re "666"))) (re.++ (re.* (re.* (str.to.re "7"))) (re.++ (re.* (re.+ (str.to.re "888"))) (re.++ (re.+ (re.* (str.to.re "99"))) (re.++ (re.+ (re.union (str.to.re "aa") (str.to.re "b"))) (re.++ (re.+ (re.* (str.to.re "ccc"))) (re.++ (re.union (re.+ (str.to.re "dd")) (re.+ (str.to.re "e"))) (re.++ (re.* (re.+ (str.to.re "ff"))) (re.++ (re.+ (re.* (str.to.re "ggg"))) (re.++ (re.* (re.* (str.to.re "hh"))) (re.++ (re.union (re.union (str.to.re "i") (str.to.re "j")) (re.union (str.to.re "k") (str.to.re "lll"))) (re.++ (re.* (re.* (str.to.re "mmm"))) (re.++ (re.* (re.+ (str.to.re "nn"))) (re.++ (re.+ (re.* (str.to.re "ooo"))) (re.++ (re.union (re.+ (str.to.re "pp")) (re.+ (str.to.re "q"))) (re.++ (re.* (re.union (str.to.re "rrr") (str.to.re "sss"))) (re.++ (re.* (re.union (str.to.re "ttt") (str.to.re "u"))) (re.++ (re.+ (re.* (str.to.re "vv"))) (re.++ (re.union (re.* (str.to.re "w")) (re.* (str.to.re "xxx"))) (re.++ (re.union (re.+ (str.to.re "yy")) (re.+ (str.to.re "z"))) (re.++ (re.union (re.* (str.to.re "AAA")) (re.* (str.to.re "B"))) (re.++ (re.union (re.* (str.to.re "CC")) (re.* (str.to.re "DDD"))) (re.++ (re.* (re.+ (str.to.re "EEE"))) (re.++ (re.+ (re.union (str.to.re "FF") (str.to.re "GG"))) (re.++ (re.+ (re.+ (str.to.re "HH"))) (re.++ (re.+ (re.* (str.to.re "II"))) (re.++ (re.+ (re.union (str.to.re "J") (str.to.re "KK"))) (re.++ (re.+ (re.* (str.to.re "L"))) (re.++ (re.+ (re.+ (str.to.re "MM"))) (re.++ (re.* (re.union (str.to.re "NNN") (str.to.re "O"))) (re.++ (re.* (re.+ (str.to.re "P"))) (re.++ (re.+ (re.* (str.to.re "QQQ"))) (re.++ (re.+ (re.union (str.to.re "RR") (str.to.re "SSS"))) (re.++ (re.+ (re.* (str.to.re "T"))) (re.++ (re.* (re.* (str.to.re "UUU"))) (re.++ (re.+ (re.union (str.to.re "VV") (str.to.re "WW"))) (re.++ (re.union (re.union (str.to.re "XXX") (str.to.re "YY")) (re.union (str.to.re "ZZZ") (str.to.re "!"))) (re.++ (re.* (re.+ (str.to.re """"""))) (re.++ (re.* (re.+ (str.to.re "###"))) (re.++ (re.* (re.+ (str.to.re "$"))) (re.++ (re.+ (re.* (str.to.re "%"))) (re.++ (re.union (re.* (str.to.re "&&&")) (re.* (str.to.re "''"))) (re.++ (re.+ (re.union (str.to.re "(((") (str.to.re ")"))) (re.++ (re.+ (re.+ (str.to.re "*"))) (re.++ (re.union (re.+ (str.to.re "+")) (re.+ (str.to.re ",,"))) (re.++ (re.union (re.+ (str.to.re "--")) (re.+ (str.to.re "."))) (re.++ (re.union (re.union (str.to.re "//") (str.to.re "::")) (re.union (str.to.re ";;;") (str.to.re "<<<"))) (re.++ (re.* (re.* (str.to.re "=="))) (re.++ (re.union (re.* (str.to.re ">>>")) (re.* (str.to.re "???"))) (re.++ (re.+ (re.union (str.to.re "@") (str.to.re "[[["))) (re.++ (re.* (re.union (str.to.re "\\\\\\") (str.to.re "]]]"))) (re.++ (re.* (re.union (str.to.re "^") (str.to.re "___"))) (re.++ (re.* (re.* (str.to.re "```"))) (re.++ (re.union (re.+ (str.to.re "{{")) (re.+ (str.to.re "|"))) (re.++ (re.union (re.union (str.to.re "}}}") (str.to.re "~~~")) (re.union (str.to.re "00") (str.to.re "1"))) (re.++ (re.+ (re.+ (str.to.re "222"))) (re.++ (re.* (re.union (str.to.re "3") (str.to.re "44"))) (re.++ (re.* (re.* (str.to.re "55"))) (re.++ (re.union (re.* (str.to.re "6")) (re.* (str.to.re "777"))) (re.++ (re.union (re.* (str.to.re "88")) (re.* (str.to.re "9"))) (re.++ (re.+ (re.* (str.to.re "a"))) (re.++ (re.union (re.union (str.to.re "bb") (str.to.re "c")) (re.union (str.to.re "ddd") (str.to.re "ee"))) (re.++ (re.+ (re.* (str.to.re "fff"))) (re.++ (re.* (re.union (str.to.re "g") (str.to.re "hh"))) (re.++ (re.+ (re.* (str.to.re "iii"))) (re.++ (re.* (re.* (str.to.re "jjj"))) (re.++ (re.union (re.+ (str.to.re "k")) (re.+ (str.to.re "l"))) (re.++ (re.+ (re.union (str.to.re "mmm") (str.to.re "nn"))) (re.++ (re.union (re.* (str.to.re "oo")) (re.* (str.to.re "pp"))) (re.++ (re.* (re.union (str.to.re "q") (str.to.re "r"))) (re.++ (re.+ (re.* (str.to.re "ss"))) (re.++ (re.* (re.+ (str.to.re "tt"))) (re.++ (re.+ (re.+ (str.to.re "uu"))) (re.++ (re.union (re.union (str.to.re "v") (str.to.re "ww")) (re.union (str.to.re "xx") (str.to.re "y"))) (re.++ (re.union (re.union (str.to.re "zz") (str.to.re "AAA")) (re.union (str.to.re "B") (str.to.re "CCC"))) (re.++ (re.* (re.+ (str.to.re "DD"))) (re.++ (re.* (re.+ (str.to.re "EE"))) (re.++ (re.* (re.+ (str.to.re "F"))) (re.* (re.union (str.to.re "GGG") (str.to.re "H")))))))))))))))))))))))))))))))))))))))))))))))))))))))))))))))))))))))))))))))))))))
(assert (not (str.in.re var0 (re.++ (re.union (re.+ (str.to.re "000")) (re.+ (str.to.re "111"))) (re.++ (re.+ (re.union (str.to.re "2") (str.to.re "3"))) (re.++ (re.union (re.+ (str.to.re "44")) (re.+ (str.to.re "5"))) (re.++ (re.* (re.union (str.to.re "66") (str.to.re "77"))) (re.++ (re.* (re.+ (str.to.re "88"))) (re.++ (re.* (re.union (str.to.re "999") (str.to.re "aaa"))) (re.++ (re.* (re.union (str.to.re "b") (str.to.re "cc"))) (re.++ (re.* (re.union (str.to.re "d") (str.to.re "e"))) (re.++ (re.+ (re.union (str.to.re "ff") (str.to.re "ggg"))) (re.++ (re.union (re.* (str.to.re "hhh")) (re.* (str.to.re "i"))) (re.++ (re.+ (re.* (str.to.re "j"))) (re.++ (re.* (re.* (str.to.re "kkk"))) (re.++ (re.+ (re.+ (str.to.re "l"))) (re.++ (re.+ (re.* (str.to.re "mm"))) (re.++ (re.union (re.+ (str.to.re "n")) (re.+ (str.to.re "ooo"))) (re.++ (re.+ (re.+ (str.to.re "ppp"))) (re.++ (re.+ (re.union (str.to.re "q") (str.to.re "r"))) (re.++ (re.+ (re.union (str.to.re "s") (str.to.re "tt"))) (re.++ (re.+ (re.* (str.to.re "u"))) (re.++ (re.* (re.union (str.to.re "vv") (str.to.re "ww"))) (re.++ (re.union (re.* (str.to.re "xx")) (re.* (str.to.re "yy"))) (re.++ (re.* (re.union (str.to.re "zzz") (str.to.re "AA"))) (re.++ (re.union (re.+ (str.to.re "BB")) (re.+ (str.to.re "C"))) (re.++ (re.union (re.union (str.to.re "DD") (str.to.re "EEE")) (re.union (str.to.re "FFF") (str.to.re "GGG"))) (re.++ (re.* (re.+ (str.to.re "H"))) (re.++ (re.union (re.union (str.to.re "III") (str.to.re "J")) (re.union (str.to.re "K") (str.to.re "L"))) (re.++ (re.* (re.* (str.to.re "MMM"))) (re.++ (re.* (re.* (str.to.re "NNN"))) (re.++ (re.+ (re.union (str.to.re "OO") (str.to.re "PP"))) (re.++ (re.union (re.+ (str.to.re "QQQ")) (re.+ (str.to.re "RRR"))) (re.++ (re.* (re.* (str.to.re "SS"))) (re.++ (re.+ (re.union (str.to.re "TTT") (str.to.re "UUU"))) (re.++ (re.+ (re.+ (str.to.re "V"))) (re.++ (re.union (re.union (str.to.re "W") (str.to.re "X")) (re.union (str.to.re "YY") (str.to.re "ZZZ"))) (re.++ (re.union (re.union (str.to.re "!") (str.to.re """""""")) (re.union (str.to.re "###") (str.to.re "$$"))) (re.++ (re.* (re.* (str.to.re "%%%"))) (re.++ (re.* (re.union (str.to.re "&") (str.to.re "'''"))) (re.++ (re.+ (re.union (str.to.re "((") (str.to.re ")))"))) (re.++ (re.* (re.+ (str.to.re "*"))) (re.++ (re.union (re.union (str.to.re "+") (str.to.re ",")) (re.union (str.to.re "-") (str.to.re "..."))) (re.++ (re.+ (re.* (str.to.re "//"))) (re.++ (re.* (re.* (str.to.re "::"))) (re.++ (re.union (re.union (str.to.re ";;") (str.to.re "<<<")) (re.union (str.to.re "=") (str.to.re ">>>"))) (re.++ (re.+ (re.+ (str.to.re "???"))) (re.++ (re.* (re.+ (str.to.re "@@"))) (re.++ (re.union (re.union (str.to.re "[[") (str.to.re "\\\\\\")) (re.union (str.to.re "]]]") (str.to.re "^^"))) (re.++ (re.union (re.* (str.to.re "_")) (re.* (str.to.re "``"))) (re.++ (re.+ (re.* (str.to.re "{{"))) (re.++ (re.+ (re.* (str.to.re "|||"))) (re.++ (re.+ (re.union (str.to.re "}}}") (str.to.re "~~"))) (re.++ (re.+ (re.+ (str.to.re "000"))) (re.++ (re.+ (re.* (str.to.re "1"))) (re.++ (re.+ (re.union (str.to.re "222") (str.to.re "3"))) (re.++ (re.union (re.+ (str.to.re "444")) (re.+ (str.to.re "5"))) (re.++ (re.union (re.* (str.to.re "6")) (re.* (str.to.re "777"))) (re.++ (re.union (re.union (str.to.re "88") (str.to.re "999")) (re.union (str.to.re "a") (str.to.re "bbb"))) (re.++ (re.* (re.* (str.to.re "cc"))) (re.++ (re.+ (re.* (str.to.re "ddd"))) (re.++ (re.* (re.* (str.to.re "eee"))) (re.++ (re.+ (re.union (str.to.re "f") (str.to.re "g"))) (re.++ (re.* (re.+ (str.to.re "h"))) (re.++ (re.union (re.union (str.to.re "iii") (str.to.re "jj")) (re.union (str.to.re "kk") (str.to.re "l"))) (re.++ (re.+ (re.union (str.to.re "mmm") (str.to.re "nnn"))) (re.++ (re.* (re.* (str.to.re "o"))) (re.++ (re.union (re.+ (str.to.re "ppp")) (re.+ (str.to.re "qq"))) (re.++ (re.+ (re.* (str.to.re "r"))) (re.++ (re.union (re.* (str.to.re "ss")) (re.* (str.to.re "t"))) (re.++ (re.+ (re.+ (str.to.re "uu"))) (re.++ (re.+ (re.* (str.to.re "vvv"))) (re.++ (re.* (re.* (str.to.re "www"))) (re.++ (re.+ (re.+ (str.to.re "xxx"))) (re.++ (re.* (re.* (str.to.re "yy"))) (re.++ (re.union (re.union (str.to.re "zz") (str.to.re "AA")) (re.union (str.to.re "BB") (str.to.re "CC"))) (re.++ (re.+ (re.* (str.to.re "DDD"))) (re.++ (re.* (re.* (str.to.re "EE"))) (re.++ (re.* (re.union (str.to.re "FF") (str.to.re "GG"))) (re.++ (re.* (re.* (str.to.re "H"))) (re.++ (re.* (re.union (str.to.re "II") (str.to.re "JJ"))) (re.++ (re.* (re.+ (str.to.re "KK"))) (re.++ (re.union (re.union (str.to.re "L") (str.to.re "MMM")) (re.union (str.to.re "NN") (str.to.re "OOO"))) (re.* (re.+ (str.to.re "P"))))))))))))))))))))))))))))))))))))))))))))))))))))))))))))))))))))))))))))))))))))))
(check-sat)